# Objective value = 1.0379633865756785e+05
e[1] 991.2117934
e[2] 991.0402734
e[3] 9.8932507339999950e+02
e[4] 9.8760987340000020e+02
e[5] 985.894673399705
e[6] 984.179473399476
e[7] 983.010146003875
e[8] 9.8184081860835852e+02
e[9] 9.8067149121376508e+02
e[10] 9.8084301121476631e+02
e[11] 9.8101453121527163e+02
e[12] 981.186051215276
e[13] 9.8135757120443634e+02
e[14] 9.8118605120197685e+02
e[15] 981.014531201978
e[16] 9.8084301122554962e+02
e[17] 9.8067149121376508e+02
e[18] 981.091151942519
e[19] 981.510812671273
e[20] 9.8193047340002681e+02
e[21] 9.8364567339999883e+02
e[22] 9.8536087339999972e+02
e[23] 9.8707607339999993e+02
e[24] 988.7912734
e[25] 988.9627934
e[26] 989.1343134
pi[1] 0
pi[2] 1
pi[3] 0
pi[4] 0
pi[5] 0
pi[6] 1
pi[7] 0
pi[8] 0
pi[9] 1
pi[10] 0
pi[11] 0
pi[12] 0
pi[13] 1
pi[14] 0
pi[15] 0
pi[16] 0
pi[17] 1
pi[18] 0
pi[19] 0
pi[20] 1
pi[21] 0
pi[22] 0
pi[23] 0
pi[24] 1
pi[25] 0
e_bar 9.8067149121376508e+02
B_minus_s[0] 0
B_minus_s[1] 0
B_minus_s[2] 1
B_minus_s[3] 1
B_minus_s[4] 1
B_minus_s[5] 1
B_minus_s[6] 1
B_minus_s[7] 1
B_minus_s[8] 1
B_minus_s[9] 0
B_minus_s[10] 0
B_minus_s[11] 0
B_minus_s[12] 0
B_minus_s[13] 1
B_minus_s[14] 1
B_minus_s[15] 1
B_minus_s[16] 1
B_minus_s[17] 0
B_minus_s[18] 0
B_minus_s[19] 0
B_minus_s[20] 0
B_minus_s[21] 0
B_minus_s[22] 0
B_minus_s[23] 0
B_minus_s[24] 0
B_minus_s[25] 0
B_add_s[0] 0
B_add_s[1] 0
B_add_s[2] 0
B_add_s[3] 0
B_add_s[4] 0
B_add_s[5] 0
B_add_s[6] 0
B_add_s[7] 0
B_add_s[8] 0
B_add_s[9] 1
B_add_s[10] 1
B_add_s[11] 1
B_add_s[12] 1
B_add_s[13] 0
B_add_s[14] 0
B_add_s[15] 0
B_add_s[16] 0
B_add_s[17] 1
B_add_s[18] 1
B_add_s[19] 1
B_add_s[20] 1
B_add_s[21] 1
B_add_s[22] 1
B_add_s[23] 1
B_add_s[24] 1
B_add_s[25] 0
g_s[0] 0.17152
g_s[1] 0.17152
g_s[2] 1.71520000000055
g_s[3] 1.7152000006363033e+00
g_s[4] 1.7152000002908683e+00
g_s[5] 1.7152000002241476e+00
g_s[6] 1.1693273955956061e+00
g_s[7] 1.1693273955168775e+00
g_s[8] 1.1693273945204696e+00
g_s[9] 0.17152
g_s[10] 0.17152
g_s[11] 0.17152
g_s[12] 0.17152
g_s[13] 0.17152
g_s[14] 0.17152
g_s[15] 0.17152
g_s[16] 1.7152001178453702e-01
g_s[17] 4.1966072875380878e-01
g_s[18] 4.1966072875398913e-01
g_s[19] 4.1966072875379723e-01
g_s[20] 1.7151999999720147e+00
g_s[21] 1.7152000000012340e+00
g_s[22] 1.7152000000001941e+00
g_s[23] 1.7152000000000953e+00
g_s[24] 0.17152
g_s[25] 0.17152
eth_minus_s[0] 0
eth_minus_s[1] 0
eth_minus_s[2] 0
eth_minus_s[3] 0
eth_minus_s[4] 0
eth_minus_s[5] 0
eth_minus_s[6] 0
eth_minus_s[7] 0
eth_minus_s[8] 0
eth_minus_s[9] 0
eth_minus_s[10] 0
eth_minus_s[11] 0
eth_minus_s[12] 0
eth_minus_s[13] 0
eth_minus_s[14] 0
eth_minus_s[15] 0
eth_minus_s[16] 0
eth_minus_s[17] 0
eth_minus_s[18] 0
eth_minus_s[19] 0
eth_minus_s[20] 0
eth_minus_s[21] 0
eth_minus_s[22] 0
eth_minus_s[23] 0
eth_minus_s[24] 0
eth_minus_s[25] 0
eth_add_s[0] 0
eth_add_s[1] 0
eth_add_s[2] 0
eth_add_s[3] 0
eth_add_s[4] 0
eth_add_s[5] 0
eth_add_s[6] 0
eth_add_s[7] 0
eth_add_s[8] 0
eth_add_s[9] 1.7152000024999076e-01
eth_add_s[10] 1.7152000025198028e-01
eth_add_s[11] 1.7152000000000012e-01
eth_add_s[12] 1.7151999458013734e-01
eth_add_s[13] 0
eth_add_s[14] 0
eth_add_s[15] 0
eth_add_s[16] 0
eth_add_s[17] 4.1966072875380878e-01
eth_add_s[18] 4.1966072875398913e-01
eth_add_s[19] 4.1966072875379723e-01
eth_add_s[20] 1.7151999999720147e+00
eth_add_s[21] 1.7152000000012322e+00
eth_add_s[22] 1.7152000000002090e+00
eth_add_s[23] 1.7152000000000953e+00
eth_add_s[24] 1.7151999999999340e-01
eth_add_s[25] 0
L2R_v[0] 0.1
L2R_v[1] 1.3587513128651812e+01
L2R_v[2] 1.5368819847429650e+01
L2R_v[3] 1.6242135219854941e+01
L2R_v[4] 1.7063565332073541e+01
L2R_v[5] 1.7840352123398535e+01
L2R_v[6] 1.8304499588915384e+01
L2R_v[7] 1.8753162846773069e+01
L2R_v[8] 1.9187465799874794e+01
L2R_v[9] 1.8965660592524603e+01
L2R_v[10] 1.8743247812837321e+01
L2R_v[11] 1.8520187957339310e+01
L2R_v[12] 1.8296439694509761e+01
L2R_v[13] 1.8246608795467576e+01
L2R_v[14] 1.8197089053275519e+01
L2R_v[15] 1.8147879019781961e+01
L2R_v[16] 1.8098977306643764e+01
L2R_v[17] 1.7745000435140472e+01
L2R_v[18] 1.7387083410486316e+01
L2R_v[19] 1.7024949753760154e+01
L2R_v[20] 1.5923051775448002e+01
L2R_v[21] 1.4750051051872260e+01
L2R_v[22] 1.3446079833960713e+01
L2R_v[23] 1.2061204592662325e+01
L2R_v[24] 1.0201549190434598e+01
L2R_v[25] 0.1
L2R_v2[0] 1.0000000000000002e-02
L2R_v2[1] 1.8462051302128526e+02
L2R_v2[2] 2.3620062350274756e+02
L2R_v2[3] 2.6380695650005231e+02
L2R_v2[4] 2.9116526184194197e+02
L2R_v2[5] 3.1827816388685056e+02
L2R_v2[6] 3.3505470520060345e+02
L2R_v2[7] 3.5168111675758985e+02
L2R_v2[8] 3.6815884382136488e+02
L2R_v2[9] 3.5969628171084071e+02
L2R_v2[10] 3.5130933857343103e+02
L2R_v2[11] 3.4299736197517603e+02
L2R_v2[12] 3.3475970549483242e+02
L2R_v2[13] 3.3293873253483468e+02
L2R_v2[14] 3.3113405001283968e+02
L2R_v2[15] 3.2934551291664229e+02
L2R_v2[16] 327.572979546406
L2R_v2[17] 3.1488504044313555e+02
L2R_v2[18] 3.0231066952320845e+02
L2R_v2[19] 2.8984891411805796e+02
L2R_v2[20] 2.5354357784359775e+02
L2R_v2[21] 217.564006032838
L2R_v2[22] 1.8079706290124491e+02
L2R_v2[23] 1.4547265622605872e+02
L2R_v2[24] 1.0407160588485679e+02
L2R_v2[25] 1.0000000000000002e-02
L2R_E_hat[0] 5.0000000000000010e-03
L2R_E_hat[1] 9.2310256510642631e+01
L2R_E_hat[2] 1.1810031175137378e+02
L2R_E_hat[3] 1.3190347825002615e+02
L2R_E_hat[4] 1.4558263092097098e+02
L2R_E_hat[5] 1.5913908194342528e+02
L2R_E_hat[6] 1.6752735260030173e+02
L2R_E_hat[7] 1.7584055837879492e+02
L2R_E_hat[8] 1.8407942191068244e+02
L2R_E_hat[9] 1.7984814085542035e+02
L2R_E_hat[10] 1.7565466928671552e+02
L2R_E_hat[11] 1.7149868098758802e+02
L2R_E_hat[12] 1.6737985274741621e+02
L2R_E_hat[13] 1.6646936626741734e+02
L2R_E_hat[14] 1.6556702500641984e+02
L2R_E_hat[15] 1.6467275645832115e+02
L2R_E_hat[16] 163.786489773203
L2R_E_hat[17] 1.5744252022156778e+02
L2R_E_hat[18] 1.5115533476160422e+02
L2R_E_hat[19] 1.4492445705902898e+02
L2R_E_hat[20] 1.2677178892179887e+02
L2R_E_hat[21] 108.782003016419
L2R_E_hat[22] 9.0398531450622457e+01
L2R_E_hat[23] 7.2736328113029359e+01
L2R_E_hat[24] 52.0358029424284
L2R_E_hat[25] 5.0000000000000010e-03
L2R_a[1] 1.0763206216259635e+00
L2R_a[2] 3.0072359189285391e-01
L2R_a[3] 1.6095110193643572e-01
L2R_a[4] 1.5950504517007158e-01
L2R_a[5] 1.5807428900254883e-01
L2R_a[6] 9.7810991825340782e-02
L2R_a[7] 9.6935701730055793e-02
L2R_a[8] 9.6068837845151508e-02
L2R_a[9] -4.9338631689511081e-02
L2R_a[10] -4.8897756146332488e-02
L2R_a[11] -4.8460684439192374e-02
L2R_a[12] -4.8027381531853930e-02
L2R_a[13] -1.0616680017706109e-02
L2R_a[14] -1.0521703117240856e-02
L2R_a[15] -1.0427571689583415e-02
L2R_a[16] -1.0334266384307123e-02
L2R_a[17] -0.0739735255554479
L2R_a[18] -7.3311397620843710e-02
L2R_a[19] -0.0726548239572673
L2R_a[20] -2.1166823854046291e-01
L2R_a[21] -2.0976895875914445e-01
L2R_a[22] -2.1435950986236652e-01
L2R_a[23] -2.0594919936559120e-01
L2R_a[24] -2.4137739238107458e-01
L2R_a[25] -6.0670245968316694e-01
L2R_f[1] 200
L2R_f[2] 2.5643083104453176e+01
L2R_f[3] 0
L2R_f[4] 0
L2R_f[5] 0
L2R_f[6] 0
L2R_f[7] 0
L2R_f[8] 0
L2R_f[9] 0
L2R_f[10] 0
L2R_f[11] 0
L2R_f[12] 0
L2R_f[13] 0
L2R_f[14] 0
L2R_f[15] 0
L2R_f[16] 0
L2R_f[17] 0
L2R_f[18] 0
L2R_f[19] 0
L2R_f[20] 0
L2R_f[21] 0
L2R_f[22] 0
L2R_f[23] 0
L2R_f[24] 0
L2R_f[25] 0
L2R_b[1] 0
L2R_b[2] 0
L2R_b[3] 0
L2R_b[4] 1.6273999392524277e-07
L2R_b[5] 0
L2R_b[6] 0
L2R_b[7] 0
L2R_b[8] 0
L2R_b[9] 0
L2R_b[10] 0
L2R_b[11] 0
L2R_b[12] 0
L2R_b[13] 0
L2R_b[14] 0
L2R_b[15] 0
L2R_b[16] 0
L2R_b[17] 0
L2R_b[18] 0
L2R_b[19] 0
L2R_b[20] 4.2737667627079652e-08
L2R_b[21] 3.3101599683504908e-08
L2R_b[22] 1.2117877826798420e+00
L2R_b[23] 0
L2R_b[24] 3.8111661027981569e+01
L2R_b[25] 1.0687144846021043e+02
L2R_f_max[1] 200
L2R_f_max[2] 200
L2R_f_max[3] 200
L2R_f_max[4] 200
L2R_f_max[5] 200
L2R_f_max[6] 200
L2R_f_max[7] 200
L2R_f_max[8] 200
L2R_f_max[9] 200
L2R_f_max[10] 200
L2R_f_max[11] 200
L2R_f_max[12] 200
L2R_f_max[13] 200
L2R_f_max[14] 200
L2R_f_max[15] 200
L2R_f_max[16] 200
L2R_f_max[17] 200
L2R_f_max[18] 200
L2R_f_max[19] 200
L2R_f_max[20] 200
L2R_f_max[21] 200
L2R_f_max[22] 200
L2R_f_max[23] 200
L2R_f_max[24] 200
L2R_f_max[25] 200
L2R_b_max[1] 200
L2R_b_max[2] 200
L2R_b_max[3] 200
L2R_b_max[4] 200
L2R_b_max[5] 200
L2R_b_max[6] 200
L2R_b_max[7] 200
L2R_b_max[8] 200
L2R_b_max[9] 200
L2R_b_max[10] 200
L2R_b_max[11] 200
L2R_b_max[12] 200
L2R_b_max[13] 200
L2R_b_max[14] 200
L2R_b_max[15] 200
L2R_b_max[16] 200
L2R_b_max[17] 200
L2R_b_max[18] 200
L2R_b_max[19] 200
L2R_b_max[20] 200
L2R_b_max[21] 200
L2R_b_max[22] 200
L2R_b_max[23] 200
L2R_b_max[24] 200
L2R_b_max[25] 200
L2R_gamma[1] 1
L2R_gamma[2] 1
L2R_gamma[3] 0
L2R_gamma[4] 0
L2R_gamma[5] 0
L2R_gamma[6] 0
L2R_gamma[7] 0
L2R_gamma[8] 0
L2R_gamma[9] 0
L2R_gamma[10] 0
L2R_gamma[11] 0
L2R_gamma[12] 0
L2R_gamma[13] 0
L2R_gamma[14] 0
L2R_gamma[15] 0
L2R_gamma[16] 0
L2R_gamma[17] 0
L2R_gamma[18] 0
L2R_gamma[19] 0
L2R_gamma[20] 0
L2R_gamma[21] 0
L2R_gamma[22] 0
L2R_gamma[23] 1
L2R_gamma[24] 0
L2R_gamma[25] 0
L2R_t[1] 1.2623354868251589e+01
L2R_t[2] 5.9459028725669283e+00
L2R_t[3] 5.4301108135557357e+00
L2R_t[4] 5.1530030652802150e+00
L2R_t[5] 4.9164962190941388e+00
L2R_t[6] 4.7461314603744515e+00
L2R_t[7] 4.6291377469360819e+00
L2R_t[8] 4.5213370160970179e+00
L2R_t[9] 4.4957178879408062e+00
L2R_t[10] 4.5486827087554111e+00
L2R_t[11] 4.6030654964289273e+00
L2R_t[12] 4.6589335295658305e+00
L2R_t[13] 4.69364791431682
L2R_t[14] 4.7064434168771552e+00
L2R_t[15] 4.71922825696892
L2R_t[16] 4.7320020607783526e+00
L2R_t[17] 4.7856466651840366e+00
L2R_t[18] 4.8826503006946460e+00
L2R_t[19] 4.9848511805272988e+00
L2R_t[20] 5.2116053256489661e+00
L2R_t[21] 5.6000590841471976e+00
L2R_t[22] 6.0961417973532939e+00
L2R_t[23] 6.7442340222128472e+00
L2R_t[24] 7.75848361841507
L2R_t[25] 1.6813132672028271e+01
L2R_Psi_t[1] 7.3596985006131321e-02
L2R_Psi_t[2] 6.5066794671269051e-02
L2R_Psi_t[3] 6.1568252286653892e-02
L2R_Psi_t[4] 5.8604393825291416e-02
L2R_Psi_t[5] 5.6052700836418896e-02
L2R_Psi_t[6] 5.4631335086492733e-02
L2R_Psi_t[7] 5.3324302668546486e-02
L2R_Psi_t[8] 5.2117325505357852e-02
L2R_Psi_t[9] 5.2726841657440675e-02
L2R_Psi_t[10] 5.3352512557937389e-02
L2R_Psi_t[11] 5.3995096966990959e-02
L2R_Psi_t[12] 5.4655405121764408e-02
L2R_Psi_t[13] 5.4804667506892751e-02
L2R_Psi_t[14] 5.4953807700130447e-02
L2R_Psi_t[15] 5.5102821426943248e-02
L2R_Psi_t[16] 5.5251704244193713e-02
L2R_Psi_t[17] 5.6353861641628027e-02
L2R_Psi_t[18] 5.7513915893228441e-02
L2R_Psi_t[19] 5.8737277682501476e-02
L2R_Psi_t[20] 6.2802025620879262e-02
L2R_Psi_t[21] 6.7796367199717683e-02
L2R_Psi_t[22] 7.4371118746021453e-02
L2R_Psi_t[23] 8.2910458264539355e-02
L2R_Psi_t[24] 9.8024327612676918e-02
L2R_phi_n[1] 2.2332808995194333e+04
L2R_phi_n[2] 4183.125162409
L2R_phi_n[3] 0
L2R_phi_n[4] 1.2723464358716581e+03
L2R_phi_n[5] 1.2139496837269478e+03
L2R_phi_n[6] 1.1718843112035681e+03
L2R_phi_n[7] 1.1429969745521189e+03
L2R_phi_n[8] 1.1163795101474118e+03
L2R_phi_n[9] 1.1100537994915571e+03
L2R_phi_n[10] 1.1231315330260275e+03
L2R_phi_n[11] 1.1365593818343029e+03
L2R_phi_n[12] 1.1503539579174890e+03
L2R_phi_n[13] 1.1589254109424246e+03
L2R_phi_n[14] 1.1620847942906555e+03
L2R_phi_n[15] 1.1652415449305975e+03
L2R_phi_n[16] 1.1683955705625560e+03
L2R_phi_n[17] 1.1816411518972930e+03
L2R_phi_n[18] 1.2055926668381842e+03
L2R_phi_n[19] 1.2308274519820491e+03
L2R_phi_n[20] 1.2868161297898680e+03
L2R_phi_n[21] 1.3827306380610364e+03
L2R_phi_n[22] 0
L2R_phi_n[23] 0
L2R_phi_n[24] 0
L2R_phi_n[25] 0
L2R_phi_b[1] 1.7634396528256229e+03
L2R_phi_b[2] 0
L2R_phi_b[3] 1.2066912919012746e+03
L2R_phi_b[4] 0
L2R_phi_b[5] 0
L2R_phi_b[6] 0
L2R_phi_b[7] 0
L2R_phi_b[8] 0
L2R_phi_b[9] 0
L2R_phi_b[10] 0
L2R_phi_b[11] 0
L2R_phi_b[12] 0
L2R_phi_b[13] 0
L2R_phi_b[14] 0
L2R_phi_b[15] 0
L2R_phi_b[16] 0
L2R_phi_b[17] 0
L2R_phi_b[18] 0
L2R_phi_b[19] 0
L2R_phi_b[20] 0
L2R_phi_b[21] 0
L2R_phi_b[22] 1.3546981771896208e+03
L2R_phi_b[23] 1.4987186716028550e+03
L2R_phi_b[24] 1.7241074707589128e+03
L2R_phi_b[25] 3.7362517048951722e+03
L2R_w0[1] 2.0905450000000005e+00
L2R_w0[2] 3.4226909632991420e+00
L2R_w0[3] 3.7754184872726695e+00
L2R_w0[4] 3.9634181424049189e+00
L2R_w0[5] 4.1492971422269438e+00
L2R_w0[6] 4.3331435160738341e+00
L2R_w0[7] 4.4467396797752929e+00
L2R_w0[8] 4.55920825482271
L2R_w0[9] 4.6705696496776445e+00
L2R_w0[10] 4.6133893049272068e+00
L2R_w0[11] 4.5566945292931074e+00
L2R_w0[12] 4.50048069482057
L2R_w0[13] 4.4447431947226068e+00
L2R_w0[14] 4.4324185276720076e+00
L2R_w0[15] 4.4202027978055582e+00
L2R_w0[16] 4.4080950483520382e+00
L2R_w0[17] 4.3960943446567473e+00
L2R_w0[18] 4.3101537671447581e+00
L2R_w0[19] 4.2249127693236215e+00
L2R_w0[20] 4.1403624493542264e+00
L2R_w0[21] 3.8935791633827757e+00
L2R_w0[22] 3.6482165395217954e+00
L2R_w0[23] 3.3964524912309071e+00
L2R_w0[24] 3.1532720704774722e+00
L2R_w0[25] 2.8659406203178284e+00
L2R_wi[1] -3.4593999999997322e+00
L2R_wi[2] -3.4594000000011874e+01
L2R_wi[3] -3.4594000012833646e+01
L2R_wi[4] -3.4594000005948764e+01
L2R_wi[5] -3.4594000004621215e+01
L2R_wi[6] -2.3584253686698524e+01
L2R_wi[7] -2.3584253685001237e+01
L2R_wi[8] -23.5842536663773
L2R_wi[9] 3.4594000100871014e+00
L2R_wi[10] 3.4594000101747255e+00
L2R_wi[11] 3.4594000001008345e+00
L2R_wi[12] 3.4594000000671841e+00
L2R_wi[13] -3.4594000496395196e+00
L2R_wi[14] -3.4593999017465720e+00
L2R_wi[15] -3.4593992235297222e+00
L2R_wi[16] -3.4594002376834396e+00
L2R_wi[17] 8.4641693391495210e+00
L2R_wi[18] 8.4641693391531589e+00
L2R_wi[19] 8.4641693391495210e+00
L2R_wi[20] 3.4593999999237347e+01
L2R_wi[21] 3.4594000000011604e+01
L2R_wi[22] 3.4593999999910316e+01
L2R_wi[23] 34.5940000000046
L2R_wi[24] 3.4593999999997322e+00
L2R_wi[25] 3.4593999999997322e+00
L2R_wtn[1] 2.9900000000000005e-05
L2R_wtn[2] 0.552015333933643
L2R_wtn[3] 7.0623986427321528e-01
L2R_wtn[4] 7.8878279993515643e-01
L2R_wtn[5] 8.7058413290740655e-01
L2R_wtn[6] 9.5165171002168325e-01
L2R_wtn[7] 1.0018135685498044e+00
L2R_wtn[8] 1.0515265391051938e+00
L2R_wtn[9] 1.1007949430258810e+00
L2R_wtn[10] 1.0754918823154138e+00
L2R_wtn[11] 1.0504149223345589e+00
L2R_wtn[12] 1.0255621123057763e+00
L2R_wtn[13] 1.0009315194295489e+00
L2R_wtn[14] 9.9548681027915575e-01
L2R_wtn[15] 9.9009080953839068e-01
L2R_wtn[16] 9.8474308362076057e-01
L2R_wtn[17] 9.7944320884375391e-01
L2R_wtn[18] 9.4150627092497530e-01
L2R_wtn[19] 9.0390890187439332e-01
L2R_wtn[20] 8.6664825321299332e-01
L2R_wtn[21] 7.5809529775235729e-01
L2R_wtn[22] 6.5051637803818563e-01
L2R_wtn[23] 5.4058321807472232e-01
L2R_wtn[24] 4.3496324211591558e-01
L2R_wtn[25] 3.1117410159572184e-01
L2R_T 148
L2R_varpi[0] 60
L2R_varpi[1] 4.6004447199796644e+01
L2R_varpi[2] 4.6004447199796644e+01
L2R_varpi[3] 3.6427532184707161e+01
L2R_varpi[4] 3.6427532284397145e+01
L2R_varpi[5] 3.6427532284397145e+01
L2R_varpi[6] 3.6427532284397145e+01
L2R_varpi[7] 3.6427532284397145e+01
L2R_varpi[8] 3.6427532284397145e+01
L2R_varpi[9] 3.6427532284397145e+01
L2R_varpi[10] 3.6427532284397145e+01
L2R_varpi[11] 3.6427532284397145e+01
L2R_varpi[12] 3.6427532284397145e+01
L2R_varpi[13] 3.6427532284397145e+01
L2R_varpi[14] 3.6427532284397145e+01
L2R_varpi[15] 3.6427532284397145e+01
L2R_varpi[16] 3.6427532284397145e+01
L2R_varpi[17] 3.6427532284397145e+01
L2R_varpi[18] 3.6427532284397145e+01
L2R_varpi[19] 3.6427532284397145e+01
L2R_varpi[20] 3.6427532310577540e+01
L2R_varpi[21] 3.6427532330854632e+01
L2R_varpi[22] 2.6418266065555784e+01
L2R_varpi[23] 1.4523673433787094e+01
L2R_varpi[24] 2.4186395449857102e+01
L2R_varpi[25] 60
L2R_kappa_plus[0] 0
L2R_kappa_plus[1] 0
L2R_kappa_plus[2] 0
L2R_kappa_plus[3] 2.4307916221042473e-06
L2R_kappa_plus[4] 0
L2R_kappa_plus[5] 0
L2R_kappa_plus[6] 0
L2R_kappa_plus[7] 0
L2R_kappa_plus[8] 0
L2R_kappa_plus[9] 0
L2R_kappa_plus[10] 0
L2R_kappa_plus[11] 0
L2R_kappa_plus[12] 0
L2R_kappa_plus[13] 0
L2R_kappa_plus[14] 0
L2R_kappa_plus[15] 0
L2R_kappa_plus[16] 0
L2R_kappa_plus[17] 0
L2R_kappa_plus[18] 0
L2R_kappa_plus[19] 6.3159351040699084e-07
L2R_kappa_plus[20] 4.5510986605713618e-07
L2R_kappa_plus[21] 1.5342593868563391e+01
L2R_kappa_plus[22] 0
L2R_kappa_plus[23] 3.7914760015754933e+02
L2R_kappa_plus[24] 4.9061445233678745e+02
L2R_kappa_plus[25] 0
L2R_kappa_minus[0] 500
L2R_kappa_minus[1] 0
L2R_kappa_minus[2] 2.2653661639042298e+02
L2R_kappa_minus[3] 0
L2R_kappa_minus[4] 0
L2R_kappa_minus[5] 0
L2R_kappa_minus[6] 0
L2R_kappa_minus[7] 0
L2R_kappa_minus[8] 0
L2R_kappa_minus[9] 0
L2R_kappa_minus[10] 0
L2R_kappa_minus[11] 0
L2R_kappa_minus[12] 0
L2R_kappa_minus[13] 0
L2R_kappa_minus[14] 0
L2R_kappa_minus[15] 0
L2R_kappa_minus[16] 0
L2R_kappa_minus[17] 0
L2R_kappa_minus[18] 0
L2R_kappa_minus[19] 0
L2R_kappa_minus[20] 0
L2R_kappa_minus[21] 2.2222222222222223e+02
L2R_kappa_minus[22] 2.2222222222222223e+02
L2R_kappa_minus[23] 3.7914760026194415e+02
L2R_kappa_minus[24] 4.9061445233678779e+02
L2R_kappa_minus[25] 0
L2R_xi[1] 0
L2R_xi[2] 0
L2R_xi[3] 0
L2R_xi[4] 1.2560938243041172e-05
L2R_xi[5] 0
L2R_xi[6] 0
L2R_xi[7] 0
L2R_xi[8] 0
L2R_xi[9] 0
L2R_xi[10] 0
L2R_xi[11] 0
L2R_xi[12] 0
L2R_xi[13] 0
L2R_xi[14] 0
L2R_xi[15] 0
L2R_xi[16] 0
L2R_xi[17] 0
L2R_xi[18] 0
L2R_xi[19] 0
L2R_xi[20] 3.2987296217470450e-06
L2R_xi[21] 2.5549138699716435e-06
L2R_xi[22] 9.3530627761965661e+01
L2R_xi[23] 0
L2R_xi[24] 2.9416104447837338e+03
L2R_xi[25] 8.2487658779528974e+03
R2L_v[0] 0.1
R2L_v[1] 1.0201549191530852e+01
R2L_v[2] 1.2837456143453583e+01
R2L_v[3] 1.4152763767709514e+01
R2L_v[4] 1.5366318223518848e+01
R2L_v[5] 1.6500649485329426e+01
R2L_v[6] 1.7278928158046408e+01
R2L_v[7] 1.8030219853881718e+01
R2L_v[8] 18.7578173722833
R2L_v[9] 1.8810831296319627e+01
R2L_v[10] 1.8864172363761849e+01
R2L_v[11] 1.8917842053218962e+01
R2L_v[12] 1.8971841846562597e+01
R2L_v[13] 1.9193630693262541e+01
R2L_v[14] 1.9414850787249989e+01
R2L_v[15] 1.9635538267508561e+01
R2L_v[16] 1.9855727827979752e+01
R2L_v[17] 1.9798840576500030e+01
R2L_v[18] 1.9741274742901552e+01
R2L_v[19] 1.9683019684302359e+01
R2L_v[20] 1.8998229820459649e+01
R2L_v[21] 1.8281280920582820e+01
R2L_v[22] 1.7528158089199852e+01
R2L_v[23] 1.6733903505973082e+01
R2L_v[24] 1.3587513128651812e+01
R2L_v[25] 0.1
R2L_v2[0] 1.0000000000000002e-02
R2L_v2[1] 1.0407160590722377e+02
R2L_v2[2] 1.6480028023509414e+02
R2L_v2[3] 2.0030072226457338e+02
R2L_v2[4] 2.3612373574639059e+02
R2L_v2[5] 2.7227143343759718e+02
R2L_v2[6] 2.9856135829076538e+02
R2L_v2[7] 3.2508882797908331e+02
R2L_v2[8] 3.5185571257163963e+02
R2L_v2[9] 3.5384737405820721e+02
R2L_v2[10] 3.5585699896921341e+02
R2L_v2[11] 3.5788474794990935e+02
R2L_v2[12] 359.93078305021
R2L_v2[13] 3.6839545918843413e+02
R2L_v2[14] 3.7693643109011418e+02
R2L_v2[15] 3.8555436305356494e+02
R2L_v2[16] 3.9424992757741046e+02
R2L_v2[17] 3.9199408817203948e+02
R2L_v2[18] 3.8971792847284968e+02
R2L_v2[19] 3.8742126389048781e+02
R2L_v2[20] 3.6093273630838360e+02
R2L_v2[21] 3.3420523209405650e+02
R2L_v2[22] 3.0723632599602615e+02
R2L_v2[23] 2.8002352654230253e+02
R2L_v2[24] 1.8462051302128526e+02
R2L_v2[25] 1.0000000000000002e-02
R2L_E_hat[0] 5.0000000000000010e-03
R2L_E_hat[1] 3.1250019858173664e+02
R2L_E_hat[2] 3.1250019858173658e+02
R2L_E_hat[3] 3.1250019858174062e+02
R2L_E_hat[4] 3.1250019858172948e+02
R2L_E_hat[5] 3.1250019858173630e+02
R2L_E_hat[6] 3.1250019858173823e+02
R2L_E_hat[7] 3.1250019858173664e+02
R2L_E_hat[8] 3.1250019858173664e+02
R2L_E_hat[9] 3.1250019858173664e+02
R2L_E_hat[10] 3.1250019858173630e+02
R2L_E_hat[11] 3.1250019858173664e+02
R2L_E_hat[12] 3.1250019858173596e+02
R2L_E_hat[13] 3.1250019858173664e+02
R2L_E_hat[14] 4.0376498731296851e+02
R2L_E_hat[15] 5.6829444374414152e+02
R2L_E_hat[16] 3.1250019858174005e+02
R2L_E_hat[17] 3.1250019858174016e+02
R2L_E_hat[18] 3.1250019858174062e+02
R2L_E_hat[19] 3.1250019858173630e+02
R2L_E_hat[20] 3.1250019858173710e+02
R2L_E_hat[21] 568.294443744137
R2L_E_hat[22] 3.1250019858174005e+02
R2L_E_hat[23] 3.1250019858174062e+02
R2L_E_hat[24] 4.0376498731296442e+02
R2L_E_hat[25] 3.1250019858173664e+02
R2L_a[1] -6.0670245981357129e-01
R2L_a[2] -3.5406176730334871e-01
R2L_a[3] -2.0697552489201990e-01
R2L_a[4] -2.0885618867663958e-01
R2L_a[5] -2.1074917030787452e-01
R2L_a[6] -1.5327614769804235e-01
R2L_a[7] -1.5466108726864489e-01
R2L_a[8] -1.5605692976070629e-01
R2L_a[9] -1.1611832361051996e-02
R2L_a[10] -1.1716563147191064e-02
R2L_a[11] -0.0118222305311099
R2L_a[12] -1.1928842702312537e-02
R2L_a[13] -4.9350956962594117e-02
R2L_a[14] -4.9795778344683336e-02
R2L_a[15] -0.0502444727346707
R2L_a[16] -5.0697087942196628e-02
R2L_a[17] 1.3152048771985836e-02
R2L_a[18] 1.3270520634268923e-02
R2L_a[19] 1.3390068693807322e-02
R2L_a[20] 1.5443404607103695e-01
R2L_a[21] 1.5582733333912716e-01
R2L_a[22] 1.5723476036631490e-01
R2L_a[23] 1.5865671323299688e-01
R2L_a[24] 5.5622092771115494e-01
R2L_a[25] 1.0763206216259635e+00
R2L_f[1] 0
R2L_f[2] 0
R2L_f[3] 0
R2L_f[4] 0
R2L_f[5] 0
R2L_f[6] 0
R2L_f[7] 0
R2L_f[8] 0
R2L_f[9] 0
R2L_f[10] 0
R2L_f[11] 0
R2L_f[12] 0
R2L_f[13] 0
R2L_f[14] 0
R2L_f[15] 0
R2L_f[16] 0
R2L_f[17] 0
R2L_f[18] 0
R2L_f[19] 0
R2L_f[20] 0
R2L_f[21] 0
R2L_f[22] 0
R2L_f[23] 0
R2L_f[24] 104.578679662713
R2L_f[25] 200
R2L_b[1] 1.0687144848438479e+02
R2L_b[2] 2.7868154315136529e+01
R2L_b[3] 0
R2L_b[4] 1.6274000103067013e-07
R2L_b[5] 0
R2L_b[6] 0
R2L_b[7] 0
R2L_b[8] 0
R2L_b[9] 0
R2L_b[10] 0
R2L_b[11] 0
R2L_b[12] 0
R2L_b[13] 0
R2L_b[14] 0
R2L_b[15] 0
R2L_b[16] 0
R2L_b[17] 0
R2L_b[18] 0
R2L_b[19] 0
R2L_b[20] 0
R2L_b[21] 0
R2L_b[22] 0
R2L_b[23] 0
R2L_b[24] 0
R2L_b[25] 0
R2L_f_max[1] 200
R2L_f_max[2] 200
R2L_f_max[3] 200
R2L_f_max[4] 200
R2L_f_max[5] 200
R2L_f_max[6] 200
R2L_f_max[7] 200
R2L_f_max[8] 200
R2L_f_max[9] 200
R2L_f_max[10] 200
R2L_f_max[11] 200
R2L_f_max[12] 200
R2L_f_max[13] 200
R2L_f_max[14] 1.7472991793437743e+02
R2L_f_max[15] 1.4721715512577529e+02
R2L_f_max[16] 200
R2L_f_max[17] 200
R2L_f_max[18] 200
R2L_f_max[19] 200
R2L_f_max[20] 200
R2L_f_max[21] 1.4721715512577637e+02
R2L_f_max[22] 200
R2L_f_max[23] 200
R2L_f_max[24] 1.7472991793437785e+02
R2L_f_max[25] 200
R2L_b_max[1] 200
R2L_b_max[2] 200
R2L_b_max[3] 200
R2L_b_max[4] 200
R2L_b_max[5] 200
R2L_b_max[6] 200
R2L_b_max[7] 200
R2L_b_max[8] 200
R2L_b_max[9] 200
R2L_b_max[10] 200
R2L_b_max[11] 200
R2L_b_max[12] 200
R2L_b_max[13] 200
R2L_b_max[14] 1.7472991793437743e+02
R2L_b_max[15] 1.4721715512577640e+02
R2L_b_max[16] 200
R2L_b_max[17] 200
R2L_b_max[18] 200
R2L_b_max[19] 200
R2L_b_max[20] 200
R2L_b_max[21] 1.4721715512577615e+02
R2L_b_max[22] 200
R2L_b_max[23] 200
R2L_b_max[24] 1.7472991793437728e+02
R2L_b_max[25] 200
R2L_gamma[1] 0
R2L_gamma[2] 0
R2L_gamma[3] 0
R2L_gamma[4] 0
R2L_gamma[5] 0
R2L_gamma[6] 0
R2L_gamma[7] 0
R2L_gamma[8] 0
R2L_gamma[9] 0
R2L_gamma[10] 0
R2L_gamma[11] 0
R2L_gamma[12] 0
R2L_gamma[13] 0
R2L_gamma[14] 0
R2L_gamma[15] 0
R2L_gamma[16] 0
R2L_gamma[17] 0
R2L_gamma[18] 0
R2L_gamma[19] 0
R2L_gamma[20] 1
R2L_gamma[21] 1
R2L_gamma[22] 0
R2L_gamma[23] 0
R2L_gamma[24] 1
R2L_gamma[25] 1
R2L_t[1] 1.6813132670319654e+01
R2L_t[2] 7.5435087949030013e+00
R2L_t[3] 6.3700225421723236e+00
R2L_t[4] 5.8203157220388277e+00
R2L_t[5] 5.3892040763637734e+00
R2L_t[6] 5.0803204240721724e+00
R2L_t[7] 4.8598644018400350e+00
R2L_t[8] 4.6642094944800050e+00
R2L_t[9] 4.5655178175026787e+00
R2L_t[10] 4.5526294295782037e+00
R2L_t[11] 4.5397349838099466e+00
R2L_t[12] 4.5268346721479791e+00
R2L_t[13] 4.4942660013557720e+00
R2L_t[14] 4.4426930242993894e+00
R2L_t[15] 4.3924140653541945e+00
R2L_t[16] 4.3433738474330124e+00
R2L_t[17] 4.3253617398414832e+00
R2L_t[18] 4.3378822284183887e+00
R2L_t[19] 4.35062635854361
R2L_t[20] 4.4355796990692991e+00
R2L_t[21] 4.6026206091298620e+00
R2L_t[22] 4.7919175618193268e+00
R2L_t[23] 5.0088116220118390e+00
R2L_t[24] 5.7183012043087267e+00
R2L_t[25] 1.2623354868251589e+01
R2L_Psi_t[1] 9.8024327602143274e-02
R2L_Psi_t[2] 7.7897052876005082e-02
R2L_Psi_t[3] 7.0657577305252448e-02
R2L_Psi_t[4] 6.5077397555727681e-02
R2L_Psi_t[5] 6.0603667657979726e-02
R2L_Psi_t[6] 5.7873954172061606e-02
R2L_Psi_t[7] 5.5462435796222793e-02
R2L_Psi_t[8] 5.3311106519075814e-02
R2L_Psi_t[9] 5.3160857508505306e-02
R2L_Psi_t[10] 5.3010537770837127e-02
R2L_Psi_t[11] 5.2860147485924679e-02
R2L_Psi_t[12] 5.2709690950362133e-02
R2L_Psi_t[13] 5.2100616917076563e-02
R2L_Psi_t[14] 5.1506962940651740e-02
R2L_Psi_t[15] 5.0928066568541229e-02
R2L_Psi_t[16] 5.0363301142116706e-02
R2L_Psi_t[17] 5.0508008089261168e-02
R2L_Psi_t[18] 5.0655290148107976e-02
R2L_Psi_t[19] 5.0805212616435162e-02
R2L_Psi_t[20] 5.2636478126785416e-02
R2L_Psi_t[21] 5.4700756227922191e-02
R2L_Psi_t[22] 5.7051052583162856e-02
R2L_Psi_t[23] 5.9758919945098313e-02
R2L_Psi_t[24] 7.3596985006131321e-02
R2L_phi_n[1] 0
R2L_phi_n[2] 0
R2L_phi_n[3] 1.5728450721413144e+03
R2L_phi_n[4] 1.4371149930960069e+03
R2L_phi_n[5] 0
R2L_phi_n[6] 1.2544001047091783e+03
R2L_phi_n[7] 1.1999665189728480e+03
R2L_phi_n[8] 1.1516566653037048e+03
R2L_phi_n[9] 1.1272883500006615e+03
R2L_phi_n[10] 1.1241060319946182e+03
R2L_phi_n[11] 1.1209222182246781e+03
R2L_phi_n[12] 1.1177369560859206e+03
R2L_phi_n[13] 1.1096953089767337e+03
R2L_phi_n[14] 1.0969612405677503e+03
R2L_phi_n[15] 1.0845466828035048e+03
R2L_phi_n[16] 1.0724379870204968e+03
R2L_phi_n[17] 1.0679905530472797e+03
R2L_phi_n[18] 1.0710820317082441e+03
R2L_phi_n[19] 1.0742287305045950e+03
R2L_phi_n[20] 1.0952048639677282e+03
R2L_phi_n[21] 1.1364495331184844e+03
R2L_phi_n[22] 1.1831895214368708e+03
R2L_phi_n[23] 1.2367436103732934e+03
R2L_phi_n[24] 1.2484355319427175e+04
R2L_phi_n[25] 2.0081571259157405e+04
R2L_phi_b[1] 3.7362517045154818e+03
R2L_phi_b[2] 1.6763352877562224e+03
R2L_phi_b[3] 0
R2L_phi_b[4] 0
R2L_phi_b[5] 1.1976009058586164e+03
R2L_phi_b[6] 0
R2L_phi_b[7] 0
R2L_phi_b[8] 0
R2L_phi_b[9] 0
R2L_phi_b[10] 0
R2L_phi_b[11] 0
R2L_phi_b[12] 0
R2L_phi_b[13] 0
R2L_phi_b[14] 0
R2L_phi_b[15] 0
R2L_phi_b[16] 0
R2L_phi_b[17] 0
R2L_phi_b[18] 0
R2L_phi_b[19] 0
R2L_phi_b[20] 0
R2L_phi_b[21] 0
R2L_phi_b[22] 0
R2L_phi_b[23] 0
R2L_phi_b[24] 0
R2L_phi_b[25] 3.7895536152588575e+03
R2L_w0[1] 2.8659406204739573e+00
R2L_w0[2] 3.2865088917339569e+00
R2L_w0[3] 3.53015177964328
R2L_w0[4] 3.7748942009420237e+00
R2L_w0[5] 4.02097068230061
R2L_w0[6] 4.1994823248388293e+00
R2L_w0[7] 4.3792735364320832e+00
R2L_w0[8] 4.5603887419640339e+00
R2L_w0[9] 4.5738540780822792e+00
R2L_w0[10] 4.5874393824647530e+00
R2L_w0[11] 4.6011457137959564e+00
R2L_w0[12] 4.6149741399226789e+00
R2L_w0[13] 4.6721680655187949e+00
R2L_w0[14] 4.7298523398007912e+00
R2L_w0[15] 4.7880316348697560e+00
R2L_w0[16] 4.84671066196737
R2L_w0[17] 4.8314902107679574e+00
R2L_w0[18] 4.8161310275539586e+00
R2L_w0[19] 4.8006318081943338e+00
R2L_w0[20] 4.6217454382449983e+00
R2L_w0[21] 4.44099056163308
R2L_w0[22] 4.2583120682483280e+00
R2L_w0[23] 4.0736451768835025e+00
R2L_w0[24] 3.4226909632991420e+00
R2L_w0[25] 2.0905450000000005e+00
R2L_wi[1] 3.4593999999997322e+00
R2L_wi[2] 3.4594000000011874e+01
R2L_wi[3] 3.4594000012833646e+01
R2L_wi[4] 3.4594000005948764e+01
R2L_wi[5] 3.4594000004621215e+01
R2L_wi[6] 2.3584253686698524e+01
R2L_wi[7] 2.3584253685001237e+01
R2L_wi[8] 23.5842536663773
R2L_wi[9] -3.4594000100871014e+00
R2L_wi[10] -3.4594000101747255e+00
R2L_wi[11] -3.4594000001008345e+00
R2L_wi[12] -3.4594000000671841e+00
R2L_wi[13] 3.4594000496395196e+00
R2L_wi[14] 3.4593999017465720e+00
R2L_wi[15] 3.4593992235297222e+00
R2L_wi[16] 3.4594002376834396e+00
R2L_wi[17] -8.4641693391495210e+00
R2L_wi[18] -8.4641693391531589e+00
R2L_wi[19] -8.4641693391495210e+00
R2L_wi[20] -3.4593999999237347e+01
R2L_wi[21] -3.4594000000011604e+01
R2L_wi[22] -3.4593999999910316e+01
R2L_wi[23] -34.5940000000046
R2L_wi[24] -3.4593999999997322e+00
R2L_wi[25] -3.4593999999997322e+00
R2L_wtn[1] 3.1117410166259907e-01
R2L_wtn[2] 4.9275283790293151e-01
R2L_wtn[3] 5.9889915957107442e-01
R2L_wtn[4] 7.0600996988170794e-01
R2L_wtn[5] 8.1409158597841558e-01
R2L_wtn[6] 8.9269846128938857e-01
R2L_wtn[7] 9.7201559565745921e-01
R2L_wtn[8] 1.0520485805892026e+00
R2L_wtn[9] 1.0580036484340396e+00
R2L_wtn[10] 1.0640124269179481e+00
R2L_wtn[11] 1.0700753963702290e+00
R2L_wtn[12] 1.0761930413201279e+00
R2L_wtn[13] 1.1015024229734180e+00
R2L_wtn[14] 1.1270399289594415e+00
R2L_wtn[15] 1.1528075455301592e+00
R2L_wtn[16] 1.1788072834564574e+00
R2L_wtn[17] 1.1720623236343981e+00
R2L_wtn[18] 1.1652566061338205e+00
R2L_wtn[19] 1.1583895790325587e+00
R2L_wtn[20] 1.0791888815620669e+00
R2L_wtn[21] 0.999273643961229
R2L_wtn[22] 9.1863661472811831e-01
R2L_wtn[23] 8.3727034436148462e-01
R2L_wtn[24] 0.552015333933643
R2L_wtn[25] 2.9900000000000005e-05
R2L_T 1.4259249785906511e+02
R2L_varpi[0] 60
R2L_varpi[1] 2.4186395449266527e+01
R2L_varpi[2] 2.0419408664319910e+01
R2L_varpi[3] 2.0419408664319910e+01
R2L_varpi[4] 2.0419408564630036e+01
R2L_varpi[5] 2.9924177658746039e+01
R2L_varpi[6] 2.9924177658746039e+01
R2L_varpi[7] 2.9924177658746039e+01
R2L_varpi[8] 2.9924177658746039e+01
R2L_varpi[9] 2.9924177658746039e+01
R2L_varpi[10] 2.9924177658746039e+01
R2L_varpi[11] 2.9924177658746039e+01
R2L_varpi[12] 2.9924177658746039e+01
R2L_varpi[13] 2.9924177658746039e+01
R2L_varpi[14] 2.9924177658746039e+01
R2L_varpi[15] 2.9924177658746039e+01
R2L_varpi[16] 2.9924177658746039e+01
R2L_varpi[17] 2.9924177658746039e+01
R2L_varpi[18] 2.9924177658746039e+01
R2L_varpi[19] 2.9924177658746039e+01
R2L_varpi[20] 2.9924177658746039e+01
R2L_varpi[21] 2.9924177658746039e+01
R2L_varpi[22] 2.9924177656675734e+01
R2L_varpi[23] 2.9924177656675734e+01
R2L_varpi[24] 2.9924177656675734e+01
R2L_varpi[25] 60
R2L_kappa_plus[0] 0
R2L_kappa_plus[1] 4.9061445232997562e+02
R2L_kappa_plus[2] 285.142588302259
R2L_kappa_plus[3] 0
R2L_kappa_plus[4] 2.0231811024716904e-06
R2L_kappa_plus[5] 0
R2L_kappa_plus[6] 0
R2L_kappa_plus[7] 0
R2L_kappa_plus[8] 0
R2L_kappa_plus[9] 0
R2L_kappa_plus[10] 0
R2L_kappa_plus[11] 0
R2L_kappa_plus[12] 0
R2L_kappa_plus[13] 0
R2L_kappa_plus[14] 0
R2L_kappa_plus[15] 0
R2L_kappa_plus[16] 0
R2L_kappa_plus[17] 0
R2L_kappa_plus[18] 0
R2L_kappa_plus[19] 0
R2L_kappa_plus[20] 0
R2L_kappa_plus[21] 0
R2L_kappa_plus[22] 0
R2L_kappa_plus[23] 0
R2L_kappa_plus[24] 0
R2L_kappa_plus[25] 0
R2L_kappa_minus[0] 0
R2L_kappa_minus[1] 490.614452329978
R2L_kappa_minus[2] 4.4715939297638761e+02
R2L_kappa_minus[3] 4.4715939297638761e+02
R2L_kappa_minus[4] 2.2566043612746765e+02
R2L_kappa_minus[5] 2.2222222222222223e+02
R2L_kappa_minus[6] 0
R2L_kappa_minus[7] 0
R2L_kappa_minus[8] 0
R2L_kappa_minus[9] 0
R2L_kappa_minus[10] 0
R2L_kappa_minus[11] 0
R2L_kappa_minus[12] 0
R2L_kappa_minus[13] 0
R2L_kappa_minus[14] 0
R2L_kappa_minus[15] 0
R2L_kappa_minus[16] 0
R2L_kappa_minus[17] 0
R2L_kappa_minus[18] 0
R2L_kappa_minus[19] 0
R2L_kappa_minus[20] 0
R2L_kappa_minus[21] 0
R2L_kappa_minus[22] 0
R2L_kappa_minus[23] 0
R2L_kappa_minus[24] 0
R2L_kappa_minus[25] 500
R2L_xi[1] 8248.76587790791
R2L_xi[2] 2.1509756226594964e+03
R2L_xi[3] 0
R2L_xi[4] 1.2560924239551249e-05
R2L_xi[5] 0
R2L_xi[6] 0
R2L_xi[7] 0
R2L_xi[8] 0
R2L_xi[9] 0
R2L_xi[10] 0
R2L_xi[11] 0
R2L_xi[12] 0
R2L_xi[13] 0
R2L_xi[14] 0
R2L_xi[15] 0
R2L_xi[16] 0
R2L_xi[17] 0
R2L_xi[18] 0
R2L_xi[19] 0
R2L_xi[20] 0
R2L_xi[21] 0
R2L_xi[22] 2.6085852277901737e-07
R2L_xi[23] 0
R2L_xi[24] 0
R2L_xi[25] 0
